2,9,10,11,12,18,32,34,35,41,56,57,149,150,151,180,181,186,187,188,189,190,191,192,193,194,195,196,197,198,199,200,201,202,203,204,205,206,207,208,209,210,211,212,213,214,215,216,217,218,219,220,221,222,223,224,225,226,227,228,229,230,231,232,233,234,235,236,237,238,239,240,241,242,243,244,245,246,247,248,249,250,251,252,253,254,255,256,257,258,259,260,261,262,263,264,265,266,267,268,269,270,271,272,273,274,275,276,277,278,279,280,281,282,283,284,285,286,287,288,289,290,291,292,293,294,295,296,297,298,299,300,301,302,303,304,305,306,307,308,309,310,311,312,313,314,315,316,317,318,319,320,321,322,323,324,325,326,327,328,329,330,331,332,333,334,335,336,337,338,339,340,341,342,343,344,345,346,347,348,349,350,351,352,353,354,355,356,357,358,359,360,361,362,363,364,365,366,367,368,369,370,371,372,373,374,375,376,377,378,379,380,381,382,383,384,385,386,387,388,389,390,391,392,393,394,395,396,397,398,399,400,401,402,403,404,405,406,407,410,411,412,413,414,415,418,419,420,421,422,423,424,425,426,427,428,429,430,431,432,433,434,435,436,437,438,439,440,441,442,443,444,445,446,447,448,449,450,451,452,453,454,455,456,457,458,459,460,461,466,467,468,469,470,471,472,473,474,475,476,477,478,479,482,483,488,489,491,494,495,502,503,504,505,506,507,648,649,740,744,745,746,747,748,749,750,751,755,784,785,788,789,790,791,796,797,800,801,802,803,804,805,806,807,808,809,810,811,812,813,814,815,817,818,819,832,833,836,837,838,839,848,849,850,872,873,874,876,877,878,879,880,881,882,883,884,885,886,887,888,889,890,891,892,893,894,895,896,897,898,899,904,905,911,913,914,915,920,921,922,929,930,931,936,937,938,939,943,947,948,952,956,957,958,959,962,963,968,969,970,971,972,973,974,975,976,977,978,979,980,981,982,983,986,987,988,989,990,996,1000,1001,1002,1003,1006,1007,1008,1009,1010,1011,1012,1013,1014,1015,1016,1017,1018,1019,1020,1021,1022,1023,1024,1025,1026,1027,1028,1029,1030,1031,1032,1033,1034,1035,1036,1037,1038,1039,1044,1080,1081,1082,1083,1087,1088,1089,1090,1091,1092,1093,1094,1095,1096,1097,1098,1099,1100,1101,1102,1103,1106,1107,1108,1109,1110,1112,1113,1114,1115,1116,1117,1118,1119,1120,1121,1122,1123,1124,1125,1126,1127,1128,1129,1130,1131,1132,1133,1134,1135,1139,1140,1141,1142,1143,1144,1145,1146,1147,1148,1149,1150,1151,1152,1153,1154,1155,1156,1157,1158,1159,1160,1161,1162,1164,1165,1166,1167,1178,1179,1184,1185,1186,1187,1188,1189,1190,1191,1192,1193,1194,1195,1196,1197,1198,1199,1200,1201,1202,1203,1204,1205,1206,1207,1208,1209,1211,1212,1213,1214,1215,1228,1229,1231,1240,1241,1242,1243,1246,1247,1248,1249,1250,1251,1254,1256,1257,1258,1259,1260,1261,1262,1263,1265,1268,1269,1270,1271,1276,1277,1278,1279,1280,1281,1282,1283,1284,1285,1286,1287,1288,1289,1290,1291,1292,1293,1294,1295,1298,1299,1300,1301,1320,1321,1322,1323,1326,1327,1328,1329,1330,1331,1332,1333,1334,1335,1336,1337,1338,1339,1340,1341,1342,1343,1344,1345,1346,1347,1348,1349,1350,1351,1352,1353,1354,1355,1356,1357,1358,1359,1360,1361,1362,1363,1364,1365,1366,1367,1368,1369,1370,1371,1372,1373,1374,1375,1376,1377,1378,1379,1380,1381,1382,1383,1386,1388,1389,1390,1391,1404,1407,1575,1577,1578,1579,1580,1581,1614,1622,1623,1624,1625,1626,1627,1634,1635,1664,1667,1670,1671,1672,1673,1675,1692,1694,1695,1701,1702,1707,1714,1715,1748,1749,1750,1751,1753,1755,1761,1763,1842,1843,1844,1845